c Generated after 1 tries
c Graph with 160 nodes and 650 edges, Max edges:12720
c generated from an undirected graph
c to solve unweighted MaxCut
p cnf 160 1300
1 3 0
-1 -3 0
1 10 0
-1 -10 0
1 109 0
-1 -109 0
1 110 0
-1 -110 0
1 118 0
-1 -118 0
1 130 0
-1 -130 0
1 150 0
-1 -150 0
1 151 0
-1 -151 0
2 34 0
-2 -34 0
2 45 0
-2 -45 0
2 47 0
-2 -47 0
2 61 0
-2 -61 0
2 105 0
-2 -105 0
2 115 0
-2 -115 0
2 124 0
-2 -124 0
2 133 0
-2 -133 0
2 154 0
-2 -154 0
3 6 0
-3 -6 0
3 11 0
-3 -11 0
3 14 0
-3 -14 0
3 43 0
-3 -43 0
3 49 0
-3 -49 0
3 64 0
-3 -64 0
3 80 0
-3 -80 0
3 140 0
-3 -140 0
3 157 0
-3 -157 0
4 18 0
-4 -18 0
4 22 0
-4 -22 0
4 43 0
-4 -43 0
4 74 0
-4 -74 0
4 83 0
-4 -83 0
4 98 0
-4 -98 0
4 115 0
-4 -115 0
4 132 0
-4 -132 0
5 68 0
-5 -68 0
5 70 0
-5 -70 0
5 79 0
-5 -79 0
5 83 0
-5 -83 0
5 136 0
-5 -136 0
5 143 0
-5 -143 0
5 146 0
-5 -146 0
6 7 0
-6 -7 0
6 18 0
-6 -18 0
6 26 0
-6 -26 0
6 43 0
-6 -43 0
6 81 0
-6 -81 0
6 92 0
-6 -92 0
6 108 0
-6 -108 0
6 115 0
-6 -115 0
6 132 0
-6 -132 0
6 143 0
-6 -143 0
6 150 0
-6 -150 0
7 45 0
-7 -45 0
7 50 0
-7 -50 0
7 57 0
-7 -57 0
7 81 0
-7 -81 0
7 89 0
-7 -89 0
7 110 0
-7 -110 0
7 116 0
-7 -116 0
7 119 0
-7 -119 0
7 139 0
-7 -139 0
7 148 0
-7 -148 0
7 153 0
-7 -153 0
8 21 0
-8 -21 0
8 24 0
-8 -24 0
8 43 0
-8 -43 0
8 68 0
-8 -68 0
8 157 0
-8 -157 0
9 17 0
-9 -17 0
9 28 0
-9 -28 0
9 54 0
-9 -54 0
9 69 0
-9 -69 0
9 70 0
-9 -70 0
9 80 0
-9 -80 0
9 85 0
-9 -85 0
9 131 0
-9 -131 0
10 16 0
-10 -16 0
10 43 0
-10 -43 0
10 86 0
-10 -86 0
10 90 0
-10 -90 0
10 129 0
-10 -129 0
10 130 0
-10 -130 0
10 139 0
-10 -139 0
11 22 0
-11 -22 0
11 29 0
-11 -29 0
11 50 0
-11 -50 0
11 60 0
-11 -60 0
11 69 0
-11 -69 0
11 89 0
-11 -89 0
11 121 0
-11 -121 0
11 123 0
-11 -123 0
12 14 0
-12 -14 0
12 40 0
-12 -40 0
12 103 0
-12 -103 0
12 108 0
-12 -108 0
12 110 0
-12 -110 0
12 139 0
-12 -139 0
13 32 0
-13 -32 0
13 50 0
-13 -50 0
13 83 0
-13 -83 0
13 91 0
-13 -91 0
13 126 0
-13 -126 0
13 135 0
-13 -135 0
14 34 0
-14 -34 0
14 53 0
-14 -53 0
14 67 0
-14 -67 0
14 84 0
-14 -84 0
14 120 0
-14 -120 0
14 146 0
-14 -146 0
14 151 0
-14 -151 0
15 20 0
-15 -20 0
15 39 0
-15 -39 0
15 76 0
-15 -76 0
15 100 0
-15 -100 0
15 113 0
-15 -113 0
15 123 0
-15 -123 0
15 137 0
-15 -137 0
15 143 0
-15 -143 0
15 156 0
-15 -156 0
16 19 0
-16 -19 0
16 90 0
-16 -90 0
16 101 0
-16 -101 0
16 136 0
-16 -136 0
16 140 0
-16 -140 0
16 145 0
-16 -145 0
17 31 0
-17 -31 0
17 93 0
-17 -93 0
17 95 0
-17 -95 0
17 97 0
-17 -97 0
17 100 0
-17 -100 0
17 116 0
-17 -116 0
17 122 0
-17 -122 0
17 152 0
-17 -152 0
18 21 0
-18 -21 0
18 39 0
-18 -39 0
18 77 0
-18 -77 0
18 122 0
-18 -122 0
18 152 0
-18 -152 0
19 28 0
-19 -28 0
19 50 0
-19 -50 0
19 72 0
-19 -72 0
19 74 0
-19 -74 0
19 82 0
-19 -82 0
19 84 0
-19 -84 0
19 103 0
-19 -103 0
19 151 0
-19 -151 0
20 34 0
-20 -34 0
20 44 0
-20 -44 0
20 59 0
-20 -59 0
20 100 0
-20 -100 0
20 112 0
-20 -112 0
20 148 0
-20 -148 0
21 54 0
-21 -54 0
21 65 0
-21 -65 0
21 73 0
-21 -73 0
21 74 0
-21 -74 0
21 108 0
-21 -108 0
21 121 0
-21 -121 0
21 142 0
-21 -142 0
22 68 0
-22 -68 0
22 76 0
-22 -76 0
22 79 0
-22 -79 0
22 87 0
-22 -87 0
22 99 0
-22 -99 0
22 101 0
-22 -101 0
23 53 0
-23 -53 0
23 57 0
-23 -57 0
23 61 0
-23 -61 0
23 65 0
-23 -65 0
23 82 0
-23 -82 0
23 84 0
-23 -84 0
23 89 0
-23 -89 0
23 103 0
-23 -103 0
23 110 0
-23 -110 0
24 34 0
-24 -34 0
24 37 0
-24 -37 0
24 48 0
-24 -48 0
24 49 0
-24 -49 0
24 113 0
-24 -113 0
24 135 0
-24 -135 0
24 139 0
-24 -139 0
25 26 0
-25 -26 0
25 43 0
-25 -43 0
25 67 0
-25 -67 0
25 102 0
-25 -102 0
25 127 0
-25 -127 0
25 147 0
-25 -147 0
25 150 0
-25 -150 0
25 156 0
-25 -156 0
26 35 0
-26 -35 0
26 63 0
-26 -63 0
26 68 0
-26 -68 0
26 83 0
-26 -83 0
26 89 0
-26 -89 0
26 109 0
-26 -109 0
26 156 0
-26 -156 0
27 139 0
-27 -139 0
28 30 0
-28 -30 0
28 48 0
-28 -48 0
28 54 0
-28 -54 0
28 63 0
-28 -63 0
28 65 0
-28 -65 0
28 78 0
-28 -78 0
28 86 0
-28 -86 0
28 94 0
-28 -94 0
28 142 0
-28 -142 0
28 156 0
-28 -156 0
28 157 0
-28 -157 0
29 35 0
-29 -35 0
29 67 0
-29 -67 0
29 89 0
-29 -89 0
29 115 0
-29 -115 0
29 130 0
-29 -130 0
29 131 0
-29 -131 0
29 138 0
-29 -138 0
29 139 0
-29 -139 0
29 146 0
-29 -146 0
29 160 0
-29 -160 0
30 31 0
-30 -31 0
30 35 0
-30 -35 0
30 36 0
-30 -36 0
30 103 0
-30 -103 0
30 126 0
-30 -126 0
30 138 0
-30 -138 0
30 141 0
-30 -141 0
31 72 0
-31 -72 0
31 103 0
-31 -103 0
31 111 0
-31 -111 0
31 134 0
-31 -134 0
32 81 0
-32 -81 0
32 86 0
-32 -86 0
32 102 0
-32 -102 0
32 145 0
-32 -145 0
32 150 0
-32 -150 0
32 160 0
-32 -160 0
33 47 0
-33 -47 0
33 59 0
-33 -59 0
33 67 0
-33 -67 0
33 75 0
-33 -75 0
33 110 0
-33 -110 0
33 112 0
-33 -112 0
33 149 0
-33 -149 0
34 47 0
-34 -47 0
34 51 0
-34 -51 0
34 55 0
-34 -55 0
34 62 0
-34 -62 0
34 67 0
-34 -67 0
34 81 0
-34 -81 0
34 97 0
-34 -97 0
34 116 0
-34 -116 0
34 129 0
-34 -129 0
35 53 0
-35 -53 0
35 127 0
-35 -127 0
35 133 0
-35 -133 0
35 135 0
-35 -135 0
36 57 0
-36 -57 0
36 68 0
-36 -68 0
36 101 0
-36 -101 0
36 106 0
-36 -106 0
36 140 0
-36 -140 0
36 150 0
-36 -150 0
37 55 0
-37 -55 0
37 64 0
-37 -64 0
37 87 0
-37 -87 0
37 144 0
-37 -144 0
38 45 0
-38 -45 0
38 83 0
-38 -83 0
38 94 0
-38 -94 0
38 106 0
-38 -106 0
38 116 0
-38 -116 0
38 145 0
-38 -145 0
39 42 0
-39 -42 0
39 61 0
-39 -61 0
39 63 0
-39 -63 0
39 66 0
-39 -66 0
39 74 0
-39 -74 0
39 104 0
-39 -104 0
39 107 0
-39 -107 0
39 110 0
-39 -110 0
39 111 0
-39 -111 0
39 116 0
-39 -116 0
39 137 0
-39 -137 0
40 42 0
-40 -42 0
40 46 0
-40 -46 0
40 58 0
-40 -58 0
40 134 0
-40 -134 0
40 155 0
-40 -155 0
41 50 0
-41 -50 0
41 71 0
-41 -71 0
41 116 0
-41 -116 0
41 132 0
-41 -132 0
41 133 0
-41 -133 0
41 154 0
-41 -154 0
42 86 0
-42 -86 0
42 138 0
-42 -138 0
42 160 0
-42 -160 0
43 65 0
-43 -65 0
43 77 0
-43 -77 0
43 139 0
-43 -139 0
43 141 0
-43 -141 0
43 145 0
-43 -145 0
44 50 0
-44 -50 0
44 84 0
-44 -84 0
44 90 0
-44 -90 0
44 96 0
-44 -96 0
44 127 0
-44 -127 0
44 154 0
-44 -154 0
45 49 0
-45 -49 0
45 70 0
-45 -70 0
45 87 0
-45 -87 0
45 101 0
-45 -101 0
45 147 0
-45 -147 0
46 64 0
-46 -64 0
46 90 0
-46 -90 0
46 129 0
-46 -129 0
46 152 0
-46 -152 0
47 68 0
-47 -68 0
47 77 0
-47 -77 0
47 114 0
-47 -114 0
47 115 0
-47 -115 0
47 137 0
-47 -137 0
47 155 0
-47 -155 0
48 51 0
-48 -51 0
48 61 0
-48 -61 0
48 68 0
-48 -68 0
48 70 0
-48 -70 0
48 76 0
-48 -76 0
48 111 0
-48 -111 0
48 120 0
-48 -120 0
48 143 0
-48 -143 0
48 145 0
-48 -145 0
48 148 0
-48 -148 0
49 50 0
-49 -50 0
49 107 0
-49 -107 0
49 133 0
-49 -133 0
49 148 0
-49 -148 0
49 154 0
-49 -154 0
50 115 0
-50 -115 0
50 135 0
-50 -135 0
50 150 0
-50 -150 0
51 65 0
-51 -65 0
51 76 0
-51 -76 0
51 79 0
-51 -79 0
51 86 0
-51 -86 0
51 95 0
-51 -95 0
51 116 0
-51 -116 0
51 122 0
-51 -122 0
51 124 0
-51 -124 0
51 144 0
-51 -144 0
51 150 0
-51 -150 0
51 151 0
-51 -151 0
51 155 0
-51 -155 0
52 67 0
-52 -67 0
52 74 0
-52 -74 0
52 80 0
-52 -80 0
52 85 0
-52 -85 0
52 118 0
-52 -118 0
52 129 0
-52 -129 0
52 140 0
-52 -140 0
52 147 0
-52 -147 0
53 62 0
-53 -62 0
53 92 0
-53 -92 0
53 97 0
-53 -97 0
53 101 0
-53 -101 0
53 113 0
-53 -113 0
53 118 0
-53 -118 0
53 139 0
-53 -139 0
53 142 0
-53 -142 0
53 150 0
-53 -150 0
53 159 0
-53 -159 0
54 57 0
-54 -57 0
54 61 0
-54 -61 0
54 68 0
-54 -68 0
54 96 0
-54 -96 0
54 122 0
-54 -122 0
54 128 0
-54 -128 0
54 132 0
-54 -132 0
55 81 0
-55 -81 0
55 102 0
-55 -102 0
55 129 0
-55 -129 0
55 148 0
-55 -148 0
55 149 0
-55 -149 0
55 151 0
-55 -151 0
55 156 0
-55 -156 0
56 131 0
-56 -131 0
56 133 0
-56 -133 0
56 140 0
-56 -140 0
56 159 0
-56 -159 0
57 69 0
-57 -69 0
57 108 0
-57 -108 0
57 113 0
-57 -113 0
58 62 0
-58 -62 0
58 89 0
-58 -89 0
58 102 0
-58 -102 0
58 107 0
-58 -107 0
58 112 0
-58 -112 0
58 130 0
-58 -130 0
58 153 0
-58 -153 0
59 101 0
-59 -101 0
59 119 0
-59 -119 0
59 126 0
-59 -126 0
59 132 0
-59 -132 0
59 134 0
-59 -134 0
60 91 0
-60 -91 0
60 129 0
-60 -129 0
60 151 0
-60 -151 0
60 155 0
-60 -155 0
61 63 0
-61 -63 0
61 65 0
-61 -65 0
61 71 0
-61 -71 0
61 91 0
-61 -91 0
61 157 0
-61 -157 0
62 68 0
-62 -68 0
62 91 0
-62 -91 0
62 107 0
-62 -107 0
62 119 0
-62 -119 0
62 125 0
-62 -125 0
62 129 0
-62 -129 0
62 140 0
-62 -140 0
62 141 0
-62 -141 0
63 74 0
-63 -74 0
63 77 0
-63 -77 0
63 126 0
-63 -126 0
63 160 0
-63 -160 0
64 108 0
-64 -108 0
64 119 0
-64 -119 0
64 128 0
-64 -128 0
64 135 0
-64 -135 0
64 154 0
-64 -154 0
65 79 0
-65 -79 0
65 95 0
-65 -95 0
65 96 0
-65 -96 0
66 77 0
-66 -77 0
66 113 0
-66 -113 0
66 146 0
-66 -146 0
66 153 0
-66 -153 0
66 158 0
-66 -158 0
66 160 0
-66 -160 0
67 85 0
-67 -85 0
67 136 0
-67 -136 0
67 153 0
-67 -153 0
68 152 0
-68 -152 0
69 101 0
-69 -101 0
69 115 0
-69 -115 0
69 117 0
-69 -117 0
69 144 0
-69 -144 0
69 147 0
-69 -147 0
70 74 0
-70 -74 0
70 98 0
-70 -98 0
70 108 0
-70 -108 0
70 115 0
-70 -115 0
71 115 0
-71 -115 0
71 143 0
-71 -143 0
72 89 0
-72 -89 0
72 99 0
-72 -99 0
72 102 0
-72 -102 0
72 107 0
-72 -107 0
72 119 0
-72 -119 0
72 120 0
-72 -120 0
72 135 0
-72 -135 0
72 139 0
-72 -139 0
72 147 0
-72 -147 0
73 88 0
-73 -88 0
73 104 0
-73 -104 0
73 157 0
-73 -157 0
74 80 0
-74 -80 0
74 82 0
-74 -82 0
74 114 0
-74 -114 0
74 150 0
-74 -150 0
75 84 0
-75 -84 0
75 86 0
-75 -86 0
75 107 0
-75 -107 0
76 83 0
-76 -83 0
76 109 0
-76 -109 0
76 116 0
-76 -116 0
76 147 0
-76 -147 0
76 157 0
-76 -157 0
77 98 0
-77 -98 0
77 119 0
-77 -119 0
78 92 0
-78 -92 0
78 100 0
-78 -100 0
78 112 0
-78 -112 0
79 87 0
-79 -87 0
79 117 0
-79 -117 0
79 131 0
-79 -131 0
80 137 0
-80 -137 0
80 159 0
-80 -159 0
80 160 0
-80 -160 0
81 107 0
-81 -107 0
81 117 0
-81 -117 0
81 122 0
-81 -122 0
81 124 0
-81 -124 0
82 98 0
-82 -98 0
82 109 0
-82 -109 0
82 122 0
-82 -122 0
82 145 0
-82 -145 0
82 156 0
-82 -156 0
83 87 0
-83 -87 0
83 88 0
-83 -88 0
83 103 0
-83 -103 0
83 114 0
-83 -114 0
83 119 0
-83 -119 0
83 120 0
-83 -120 0
83 129 0
-83 -129 0
83 133 0
-83 -133 0
83 158 0
-83 -158 0
84 111 0
-84 -111 0
84 119 0
-84 -119 0
84 128 0
-84 -128 0
85 114 0
-85 -114 0
86 87 0
-86 -87 0
86 90 0
-86 -90 0
86 101 0
-86 -101 0
86 105 0
-86 -105 0
86 111 0
-86 -111 0
86 118 0
-86 -118 0
87 97 0
-87 -97 0
87 107 0
-87 -107 0
87 130 0
-87 -130 0
87 157 0
-87 -157 0
88 89 0
-88 -89 0
88 142 0
-88 -142 0
88 145 0
-88 -145 0
88 146 0
-88 -146 0
88 156 0
-88 -156 0
89 100 0
-89 -100 0
89 105 0
-89 -105 0
89 138 0
-89 -138 0
90 104 0
-90 -104 0
90 129 0
-90 -129 0
90 139 0
-90 -139 0
90 145 0
-90 -145 0
90 148 0
-90 -148 0
91 97 0
-91 -97 0
91 127 0
-91 -127 0
91 129 0
-91 -129 0
91 135 0
-91 -135 0
91 154 0
-91 -154 0
92 114 0
-92 -114 0
92 120 0
-92 -120 0
92 122 0
-92 -122 0
92 150 0
-92 -150 0
92 153 0
-92 -153 0
92 154 0
-92 -154 0
93 104 0
-93 -104 0
93 134 0
-93 -134 0
93 141 0
-93 -141 0
93 148 0
-93 -148 0
93 158 0
-93 -158 0
94 107 0
-94 -107 0
94 113 0
-94 -113 0
94 127 0
-94 -127 0
96 106 0
-96 -106 0
96 114 0
-96 -114 0
96 120 0
-96 -120 0
96 124 0
-96 -124 0
96 151 0
-96 -151 0
98 99 0
-98 -99 0
98 104 0
-98 -104 0
98 135 0
-98 -135 0
98 142 0
-98 -142 0
98 154 0
-98 -154 0
99 111 0
-99 -111 0
99 122 0
-99 -122 0
99 126 0
-99 -126 0
99 134 0
-99 -134 0
99 144 0
-99 -144 0
100 113 0
-100 -113 0
100 117 0
-100 -117 0
100 137 0
-100 -137 0
100 146 0
-100 -146 0
100 152 0
-100 -152 0
101 160 0
-101 -160 0
102 109 0
-102 -109 0
102 112 0
-102 -112 0
102 113 0
-102 -113 0
103 122 0
-103 -122 0
103 140 0
-103 -140 0
103 157 0
-103 -157 0
104 150 0
-104 -150 0
105 120 0
-105 -120 0
105 143 0
-105 -143 0
105 149 0
-105 -149 0
107 132 0
-107 -132 0
107 145 0
-107 -145 0
108 110 0
-108 -110 0
109 116 0
-109 -116 0
109 143 0
-109 -143 0
109 148 0
-109 -148 0
109 154 0
-109 -154 0
110 139 0
-110 -139 0
110 154 0
-110 -154 0
110 160 0
-110 -160 0
111 131 0
-111 -131 0
111 135 0
-111 -135 0
111 142 0
-111 -142 0
111 145 0
-111 -145 0
111 152 0
-111 -152 0
112 158 0
-112 -158 0
114 115 0
-114 -115 0
114 137 0
-114 -137 0
114 159 0
-114 -159 0
115 159 0
-115 -159 0
116 119 0
-116 -119 0
116 157 0
-116 -157 0
117 122 0
-117 -122 0
117 133 0
-117 -133 0
117 159 0
-117 -159 0
118 151 0
-118 -151 0
120 126 0
-120 -126 0
120 133 0
-120 -133 0
120 135 0
-120 -135 0
120 150 0
-120 -150 0
120 153 0
-120 -153 0
121 151 0
-121 -151 0
122 131 0
-122 -131 0
122 133 0
-122 -133 0
122 151 0
-122 -151 0
122 160 0
-122 -160 0
124 134 0
-124 -134 0
124 158 0
-124 -158 0
124 160 0
-124 -160 0
125 128 0
-125 -128 0
125 132 0
-125 -132 0
125 146 0
-125 -146 0
125 151 0
-125 -151 0
126 133 0
-126 -133 0
126 157 0
-126 -157 0
127 129 0
-127 -129 0
127 131 0
-127 -131 0
127 137 0
-127 -137 0
127 155 0
-127 -155 0
127 156 0
-127 -156 0
128 147 0
-128 -147 0
130 151 0
-130 -151 0
131 141 0
-131 -141 0
132 145 0
-132 -145 0
133 141 0
-133 -141 0
133 147 0
-133 -147 0
134 156 0
-134 -156 0
134 159 0
-134 -159 0
135 137 0
-135 -137 0
135 152 0
-135 -152 0
138 144 0
-138 -144 0
139 159 0
-139 -159 0
143 154 0
-143 -154 0
149 159 0
-149 -159 0
152 156 0
-152 -156 0
153 158 0
-153 -158 0
157 159 0
-157 -159 0
